
  32    1
  10

   0   0   4 2 3 5 6 
   7   7   6 14 11 10 9 8 7 
   2   4   4 11 10 9 4 
   6   6   3 15 8 7 
  10   7   2 14 8 
   4   6   3 18 13 10 
   9   6   3 18 13 12 
   1   8   2 13 12 
   6   8   2 18 12 
   1  10   2 16 15 
   4   5   1 12 
   3   8   3 20 17 16 
   7   8   3 20 17 16 
   1  10   3 18 17 16 
   1  10   2 20 17 
   2   8   3 25 21 19 
   6  10   4 25 24 23 22 
   7  10   4 25 24 23 22 
   2  10   3 24 23 22 
   8  10   2 24 21 
   2  10   3 31 26 23 
   1  10   4 30 29 28 26 
  10   9   4 30 29 28 27 
   7   8   4 31 29 28 27 
   8   5   3 29 28 27 
   2   8   1 27 
   7  10   1 32
  10   9   1 32
   5  10   1 32
   5   5   1 32
   7   5   1 32
   0   0   0 
